data;

set NODES := 1, 2, 3, 4, 5, 6, 7, 8, 9, 10, 11, 12, 13, 14, 15, 16;

/*
1: Pam
2: Jim
3: Dwight
4: Michael
5: Erin
6: Oscar
7: Andy
8: Creed
9: pam
10: j
11: dhyllis
12: Holly
13: Kelly
14: Stanley
15: Ryan
16: Meredith
*/

/*
2 = Not Compatible
7 = Compatible
10 = Highly Compatible
*/


set ARCS :=      
	(1,*) 		10	11	12	13	14	15	16
	(2,*) 	9		11	12	13	14	15	16
	(3,*) 	9	10		12	13	14	15	16
	(4,*) 	9	10	11		13	14	15	16
	(5,*) 	9	10	11	12		14	15	16
	(6,*) 	9	10	11	12	13		15	16
	(7,*) 	9	10	11	12	13	14		16
	(8,*) 	9	10	11	12	13	14	15	
	 ;


param c: 9     10     11    12    13    14    15    16 :=
    1    .     2      7     7     7     2     2     2
    2    2     .     10     2     7     7     2     2
    3    7     10     .     2     2     2     7     2
    4    7     2      2     .     2     2     7     2
    5    7     7      2     2     .     2     7     2
    6    2     7      2     2     2     .     2     2
    7    2     2      7     7     7     2     .     2
    8    2     2      2     2     2     2     2     .;
    
param b:=
	1	1
	2	1
	3	1
	4	1
	5	1
	6	1
	7	1
	8	1
	9	-1
	10	-1
	11	-1
	12	-1
	13	-1
	14	-1	
	15	-1	
	16	-1;